W=8;
H=6;

MAX_TIME=31;
MAX_TRACKS=12;

TARGET=(2,8);

TRAINS=[(6,3,TOP),(6,5,TOP)];

INIT_POS=[
(2,2,STRAIGHT_TD),
(2,5,CORNER_TR),
(2,6,STRAIGHT_RL),
(2,7,STRAIGHT_RL),
(2,8,STRAIGHT_RL),
(3,4,STRAIGHT_RL),
(4,2,DSWITCH_T_D_L),
(4,4,STRAIGHT_RL),
(4,5,DSWITCH_L_R_D),
(4,6,DSWITCH_R_L_T),
(4,7,STRAIGHT_RL),
(6,3,STRAIGHT_TD),
(6,5,STRAIGHT_TD),
];
TUNNEL_PAIRS=[
  (1, 1, RIGHT, 4, 1, RIGHT),
  (1, 5, DOWN, 4, 8, LEFT),
];

GATES=[
(2,6,2,false),
];
ACTIVATIONS=[
(2,2,1),
(3,4,2),
(4,4,1),
];

DSWITCHES=[
(4,2,2),
(4,5,1),
(4,6,2),
];
STATIONS=[];
